33D32945 STP File, STP Format Version 1.0

SECTION Comments
Name "cube_n11_d3_s41"
Problem "Euclidean Steiner Tree Problem"
Remark "Generated with STPGenerator. 3 dimensions."
END

SECTION Graph
Nodes 11
END

SECTION Coordinates
DDD 0 0.6702460561 0.9116797088 0.3821349500
DDD 1 0.5965716008 0.2660512897 0.0223274580
DDD 2 0.7685739201 0.5612500564 0.4878506383
DDD 3 0.4318964698 0.8467889367 0.5935844293
DDD 4 0.9065222973 0.5735588286 0.6033617564
DDD 5 0.7889988608 0.3876816590 0.2726833854
DDD 6 0.3569481244 0.0666660061 0.3927549945
DDD 7 0.8972157686 0.7339704534 0.1277633953
DDD 8 0.3233618859 0.0549102435 0.9953047172
DDD 9 0.4083444380 0.1785172881 0.7420079246
DDD 10 0.1287793886 0.8487633443 0.6536876334
END
